c description: Tseitin formula on , with odd charge
c generator: CNFgen (0.9.0)
c copyright: (C) 2012-2020 Massimo Lauria <massimo.lauria@uniroma1.it>
c url: https://massimolauria.net/cnfgen
c
p cnf 40 328
1 2 3 4 0
1 2 -3 -4 0
1 -2 3 -4 0
1 -2 -3 4 0
-1 2 3 -4 0
-1 2 -3 4 0
-1 -2 3 4 0
-1 -2 -3 -4 0
5 6 7 -8 0
5 6 -7 8 0
5 -6 7 8 0
5 -6 -7 -8 0
-5 6 7 8 0
-5 6 -7 -8 0
-5 -6 7 -8 0
-5 -6 -7 8 0
1 9 -10 0
1 -9 10 0
-1 9 10 0
-1 -9 -10 0
11 12 -13 0
11 -12 13 0
-11 12 13 0
-11 -12 -13 0
2 5 14 15 16 17 -18 0
2 5 14 15 16 -17 18 0
2 5 14 15 -16 17 18 0
2 5 14 15 -16 -17 -18 0
2 5 14 -15 16 17 18 0
2 5 14 -15 16 -17 -18 0
2 5 14 -15 -16 17 -18 0
2 5 14 -15 -16 -17 18 0
2 5 -14 15 16 17 18 0
2 5 -14 15 16 -17 -18 0
2 5 -14 15 -16 17 -18 0
2 5 -14 15 -16 -17 18 0
2 5 -14 -15 16 17 -18 0
2 5 -14 -15 16 -17 18 0
2 5 -14 -15 -16 17 18 0
2 5 -14 -15 -16 -17 -18 0
2 -5 14 15 16 17 18 0
2 -5 14 15 16 -17 -18 0
2 -5 14 15 -16 17 -18 0
2 -5 14 15 -16 -17 18 0
2 -5 14 -15 16 17 -18 0
2 -5 14 -15 16 -17 18 0
2 -5 14 -15 -16 17 18 0
2 -5 14 -15 -16 -17 -18 0
2 -5 -14 15 16 17 -18 0
2 -5 -14 15 16 -17 18 0
2 -5 -14 15 -16 17 18 0
2 -5 -14 15 -16 -17 -18 0
2 -5 -14 -15 16 17 18 0
2 -5 -14 -15 16 -17 -18 0
2 -5 -14 -15 -16 17 -18 0
2 -5 -14 -15 -16 -17 18 0
-2 5 14 15 16 17 18 0
-2 5 14 15 16 -17 -18 0
-2 5 14 15 -16 17 -18 0
-2 5 14 15 -16 -17 18 0
-2 5 14 -15 16 17 -18 0
-2 5 14 -15 16 -17 18 0
-2 5 14 -15 -16 17 18 0
-2 5 14 -15 -16 -17 -18 0
-2 5 -14 15 16 17 -18 0
-2 5 -14 15 16 -17 18 0
-2 5 -14 15 -16 17 18 0
-2 5 -14 15 -16 -17 -18 0
-2 5 -14 -15 16 17 18 0
-2 5 -14 -15 16 -17 -18 0
-2 5 -14 -15 -16 17 -18 0
-2 5 -14 -15 -16 -17 18 0
-2 -5 14 15 16 17 -18 0
-2 -5 14 15 16 -17 18 0
-2 -5 14 15 -16 17 18 0
-2 -5 14 15 -16 -17 -18 0
-2 -5 14 -15 16 17 18 0
-2 -5 14 -15 16 -17 -18 0
-2 -5 14 -15 -16 17 -18 0
-2 -5 14 -15 -16 -17 18 0
-2 -5 -14 15 16 17 18 0
-2 -5 -14 15 16 -17 -18 0
-2 -5 -14 15 -16 17 -18 0
-2 -5 -14 15 -16 -17 18 0
-2 -5 -14 -15 16 17 -18 0
-2 -5 -14 -15 16 -17 18 0
-2 -5 -14 -15 -16 17 18 0
-2 -5 -14 -15 -16 -17 -18 0
19 20 -21 0
19 -20 21 0
-19 20 21 0
-19 -20 -21 0
14 22 23 -24 0
14 22 -23 24 0
14 -22 23 24 0
14 -22 -23 -24 0
-14 22 23 24 0
-14 22 -23 -24 0
-14 -22 23 -24 0
-14 -22 -23 24 0
-15 0
3 6 25 -26 0
3 6 -25 26 0
3 -6 25 26 0
3 -6 -25 -26 0
-3 6 25 26 0
-3 6 -25 -26 0
-3 -6 25 -26 0
-3 -6 -25 26 0
11 27 28 29 -30 0
11 27 28 -29 30 0
11 27 -28 29 30 0
11 27 -28 -29 -30 0
11 -27 28 29 30 0
11 -27 28 -29 -30 0
11 -27 -28 29 -30 0
11 -27 -28 -29 30 0
-11 27 28 29 30 0
-11 27 28 -29 -30 0
-11 27 -28 29 -30 0
-11 27 -28 -29 30 0
-11 -27 28 29 -30 0
-11 -27 28 -29 30 0
-11 -27 -28 29 30 0
-11 -27 -28 -29 -30 0
19 -31 0
-19 31 0
-32 0
4 16 25 27 31 32 -33 0
4 16 25 27 31 -32 33 0
4 16 25 27 -31 32 33 0
4 16 25 27 -31 -32 -33 0
4 16 25 -27 31 32 33 0
4 16 25 -27 31 -32 -33 0
4 16 25 -27 -31 32 -33 0
4 16 25 -27 -31 -32 33 0
4 16 -25 27 31 32 33 0
4 16 -25 27 31 -32 -33 0
4 16 -25 27 -31 32 -33 0
4 16 -25 27 -31 -32 33 0
4 16 -25 -27 31 32 -33 0
4 16 -25 -27 31 -32 33 0
4 16 -25 -27 -31 32 33 0
4 16 -25 -27 -31 -32 -33 0
4 -16 25 27 31 32 33 0
4 -16 25 27 31 -32 -33 0
4 -16 25 27 -31 32 -33 0
4 -16 25 27 -31 -32 33 0
4 -16 25 -27 31 32 -33 0
4 -16 25 -27 31 -32 33 0
4 -16 25 -27 -31 32 33 0
4 -16 25 -27 -31 -32 -33 0
4 -16 -25 27 31 32 -33 0
4 -16 -25 27 31 -32 33 0
4 -16 -25 27 -31 32 33 0
4 -16 -25 27 -31 -32 -33 0
4 -16 -25 -27 31 32 33 0
4 -16 -25 -27 31 -32 -33 0
4 -16 -25 -27 -31 32 -33 0
4 -16 -25 -27 -31 -32 33 0
-4 16 25 27 31 32 33 0
-4 16 25 27 31 -32 -33 0
-4 16 25 27 -31 32 -33 0
-4 16 25 27 -31 -32 33 0
-4 16 25 -27 31 32 -33 0
-4 16 25 -27 31 -32 33 0
-4 16 25 -27 -31 32 33 0
-4 16 25 -27 -31 -32 -33 0
-4 16 -25 27 31 32 -33 0
-4 16 -25 27 31 -32 33 0
-4 16 -25 27 -31 32 33 0
-4 16 -25 27 -31 -32 -33 0
-4 16 -25 -27 31 32 33 0
-4 16 -25 -27 31 -32 -33 0
-4 16 -25 -27 -31 32 -33 0
-4 16 -25 -27 -31 -32 33 0
-4 -16 25 27 31 32 -33 0
-4 -16 25 27 31 -32 33 0
-4 -16 25 27 -31 32 33 0
-4 -16 25 27 -31 -32 -33 0
-4 -16 25 -27 31 32 33 0
-4 -16 25 -27 31 -32 -33 0
-4 -16 25 -27 -31 32 -33 0
-4 -16 25 -27 -31 -32 33 0
-4 -16 -25 27 31 32 33 0
-4 -16 -25 27 31 -32 -33 0
-4 -16 -25 27 -31 32 -33 0
-4 -16 -25 27 -31 -32 33 0
-4 -16 -25 -27 31 32 -33 0
-4 -16 -25 -27 31 -32 33 0
-4 -16 -25 -27 -31 32 33 0
-4 -16 -25 -27 -31 -32 -33 0
7 9 12 17 28 34 -35 0
7 9 12 17 28 -34 35 0
7 9 12 17 -28 34 35 0
7 9 12 17 -28 -34 -35 0
7 9 12 -17 28 34 35 0
7 9 12 -17 28 -34 -35 0
7 9 12 -17 -28 34 -35 0
7 9 12 -17 -28 -34 35 0
7 9 -12 17 28 34 35 0
7 9 -12 17 28 -34 -35 0
7 9 -12 17 -28 34 -35 0
7 9 -12 17 -28 -34 35 0
7 9 -12 -17 28 34 -35 0
7 9 -12 -17 28 -34 35 0
7 9 -12 -17 -28 34 35 0
7 9 -12 -17 -28 -34 -35 0
7 -9 12 17 28 34 35 0
7 -9 12 17 28 -34 -35 0
7 -9 12 17 -28 34 -35 0
7 -9 12 17 -28 -34 35 0
7 -9 12 -17 28 34 -35 0
7 -9 12 -17 28 -34 35 0
7 -9 12 -17 -28 34 35 0
7 -9 12 -17 -28 -34 -35 0
7 -9 -12 17 28 34 -35 0
7 -9 -12 17 28 -34 35 0
7 -9 -12 17 -28 34 35 0
7 -9 -12 17 -28 -34 -35 0
7 -9 -12 -17 28 34 35 0
7 -9 -12 -17 28 -34 -35 0
7 -9 -12 -17 -28 34 -35 0
7 -9 -12 -17 -28 -34 35 0
-7 9 12 17 28 34 35 0
-7 9 12 17 28 -34 -35 0
-7 9 12 17 -28 34 -35 0
-7 9 12 17 -28 -34 35 0
-7 9 12 -17 28 34 -35 0
-7 9 12 -17 28 -34 35 0
-7 9 12 -17 -28 34 35 0
-7 9 12 -17 -28 -34 -35 0
-7 9 -12 17 28 34 -35 0
-7 9 -12 17 28 -34 35 0
-7 9 -12 17 -28 34 35 0
-7 9 -12 17 -28 -34 -35 0
-7 9 -12 -17 28 34 35 0
-7 9 -12 -17 28 -34 -35 0
-7 9 -12 -17 -28 34 -35 0
-7 9 -12 -17 -28 -34 35 0
-7 -9 12 17 28 34 -35 0
-7 -9 12 17 28 -34 35 0
-7 -9 12 17 -28 34 35 0
-7 -9 12 17 -28 -34 -35 0
-7 -9 12 -17 28 34 35 0
-7 -9 12 -17 28 -34 -35 0
-7 -9 12 -17 -28 34 -35 0
-7 -9 12 -17 -28 -34 35 0
-7 -9 -12 17 28 34 35 0
-7 -9 -12 17 28 -34 -35 0
-7 -9 -12 17 -28 34 -35 0
-7 -9 -12 17 -28 -34 35 0
-7 -9 -12 -17 28 34 -35 0
-7 -9 -12 -17 28 -34 35 0
-7 -9 -12 -17 -28 34 35 0
-7 -9 -12 -17 -28 -34 -35 0
26 29 -36 0
26 -29 36 0
-26 29 36 0
-26 -29 -36 0
20 22 37 38 -39 0
20 22 37 -38 39 0
20 22 -37 38 39 0
20 22 -37 -38 -39 0
20 -22 37 38 39 0
20 -22 37 -38 -39 0
20 -22 -37 38 -39 0
20 -22 -37 -38 39 0
-20 22 37 38 39 0
-20 22 37 -38 -39 0
-20 22 -37 38 -39 0
-20 22 -37 -38 39 0
-20 -22 37 38 -39 0
-20 -22 37 -38 39 0
-20 -22 -37 38 39 0
-20 -22 -37 -38 -39 0
10 21 23 -40 0
10 21 -23 40 0
10 -21 23 40 0
10 -21 -23 -40 0
-10 21 23 40 0
-10 21 -23 -40 0
-10 -21 23 -40 0
-10 -21 -23 40 0
13 18 34 -37 0
13 18 -34 37 0
13 -18 34 37 0
13 -18 -34 -37 0
-13 18 34 37 0
-13 18 -34 -37 0
-13 -18 34 -37 0
-13 -18 -34 37 0
8 36 -38 0
8 -36 38 0
-8 36 38 0
-8 -36 -38 0
24 30 33 35 39 -40 0
24 30 33 35 -39 40 0
24 30 33 -35 39 40 0
24 30 33 -35 -39 -40 0
24 30 -33 35 39 40 0
24 30 -33 35 -39 -40 0
24 30 -33 -35 39 -40 0
24 30 -33 -35 -39 40 0
24 -30 33 35 39 40 0
24 -30 33 35 -39 -40 0
24 -30 33 -35 39 -40 0
24 -30 33 -35 -39 40 0
24 -30 -33 35 39 -40 0
24 -30 -33 35 -39 40 0
24 -30 -33 -35 39 40 0
24 -30 -33 -35 -39 -40 0
-24 30 33 35 39 40 0
-24 30 33 35 -39 -40 0
-24 30 33 -35 39 -40 0
-24 30 33 -35 -39 40 0
-24 30 -33 35 39 -40 0
-24 30 -33 35 -39 40 0
-24 30 -33 -35 39 40 0
-24 30 -33 -35 -39 -40 0
-24 -30 33 35 39 -40 0
-24 -30 33 35 -39 40 0
-24 -30 33 -35 39 40 0
-24 -30 33 -35 -39 -40 0
-24 -30 -33 35 39 40 0
-24 -30 -33 35 -39 -40 0
-24 -30 -33 -35 39 -40 0
-24 -30 -33 -35 -39 40 0